1072.2 0
0 38 62 9 50 130 118 34 74 79 21 129 127 16 0
0 77 119 1 120 80 22 2 100 11 78 0
0 103 90 10 54 39 89 117 75 105 30 104 49 76 0
0 108 63 145 144 56 47 139 0
0 68 133 67 13 136 40 88 64 93 65 107 44 137 37 0
0 17 147 92 42 19 94 41 66 111 134 55 18 110 0
0 5 71 123 122 124 125 106 73 33 72 91 45 15 52 0
0 83 131 20 59 121 115 36 85 35 84 128 29 53 126 0
0 32 51 101 3 116 70 28 31 82 140 8 60 81 0
0 146 4 149 143 135 141 150 87 148 142 109 12 0
0 14 58 25 95 96 86 43 99 97 24 98 57 0
0 27 138 48 112 26 113 114 61 7 69 23 132 6 102 46 0
